\ Model TSP0
\ LP format - for model browsing. Use MPS format to capture full model detail.
Maximize
  147 y_1 + 210 y_2 + 63 y_3
Subject To
 c_1: 2 y_1 + 3 y_2 + y_3 <= 5
 c_2: 3 y_1 + 4 y_2 + y_3 <= 7
Bounds
End
